CUST NO.  XCOORD.    YCOORD.    DEMAND   READY TIME  DUE DATE   SERVICE TIME
    1      40.00      50.00       0.00       0.00    3390.00       0.00
    2      52.00      75.00      10.00     311.00     471.00      90.00
    3      45.00      70.00      30.00     213.00     373.00      90.00
    4      62.00      69.00      10.00    1167.00    1327.00      90.00
    5      60.00      66.00      10.00    1261.00    1421.00      90.00
    6      42.00      65.00      10.00      25.00     185.00      90.00
    7      16.00      42.00      20.00     497.00     657.00      90.00
    8      58.00      70.00      20.00    1073.00    1233.00      90.00
    9      34.00      60.00      20.00    2887.00    3047.00      90.00
   10      28.00      70.00      10.00    2601.00    2761.00      90.00
   11      35.00      66.00      10.00    2791.00    2951.00      90.00
   12      35.00      69.00      10.00    2698.00    2858.00      90.00
   13      25.00      85.00      20.00    2119.00    2279.00      90.00
   14      22.00      75.00      30.00    2405.00    2565.00      90.00
   15      22.00      85.00      10.00    2026.00    2186.00      90.00
   16      20.00      80.00      40.00    2216.00    2376.00      90.00
   17      20.00      85.00      40.00    1934.00    2094.00      90.00
   18      18.00      75.00      20.00    2311.00    2471.00      90.00
   19      15.00      75.00      20.00    1742.00    1902.00      90.00
   20      15.00      80.00      10.00    1837.00    1997.00      90.00
   21      30.00      50.00      10.00      10.00     170.00      90.00
   22      30.00      56.00      20.00    2983.00    3143.00      90.00
   23      28.00      52.00      20.00      22.00     182.00      90.00
   24      14.00      66.00      10.00    1643.00    1803.00      90.00
   25      25.00      50.00      10.00     116.00     276.00      90.00
   26      22.00      66.00      40.00    2504.00    2664.00      90.00